1918	1935
2003	1934
2016	1930
2043	1925
2056	1923
2064	1917
2093	1916
2096	1914
2097	1909
2109	1907
2117	1906
2123	1905
2151	1895
2158	1889
2197	1882
2210	1860
2233	1847
2241	1828
2247	1807
2248	1806
2249	1780
2263	1779
2264	1778
2276	1776
2278	1756
2279	1730
2294	1728
2297	1682
2300	1664
2304	1640
2319	1638
2321	1610
2322	1609
2331	1546
